experiment/data/hgs-res/Vrp-Set-P-n101/Vrp-Set-P-n101-hgs/0.hgs1.tour
Route #1: 94 95 97 87 2 57 15 43 42 14 44 38 86 16 61 85 91 100 37 98 92 59 93 99 96 6
Route #2: 13 58 40 21 73 72 74 22 41 75 56 23 67 39 25 55 4 54 24 29 68 80 12 26 53
Route #3: 27 69 1 50 33 81 9 51 30 70 10 62 11 19 48 82 7 88 31 52
Route #4: 28 76 77 3 79 78 34 35 71 65 66 20 32 90 63 64 49 36 47 46 8 45 17 84 5 60 83 18 89
Cost 691.287
